# Node Net
2101   1
5501   1
5000   1
5601   1
 82   2
1901   2
2700   2
 72   2
9921   3
9900   3
7500   3
9991   3
9908   4
9401   4
9943   4
9949   5
3100   5
6500   6
 35   6
 70   7
3900   7
4900   8
9974   8
6701   9
9962   9
 33  10
 24  10
9986  11
9801  11
9975  12
 17  12
